NAME : OMNETRUN
COMMENT : 524.61
TYPE : CVRP
DIMENSION : 21
EDGE_WEIGHT_TYPE : EUC_2D
CAPACITY : 21
NODE_COORD_SECTION
1 0.107093 -0.77924
2 250.102 -245.674
3 15.597 -773.204
4 244.269 -1407.8
5 202.466 -2974.44
6 72.7011 -3517.42
7 126.23 -5054.31
8 137.68 -5531.94
9 386.902 -1866.03
10 263.936 -2281.3
11 357.775 -4196.63
12 401.988 -4637.61
13 611.959 -465.578
14 609.346 -1039.04
15 545.573 -2705.52
16 725.728 -3801.55
17 556.827 -5231.38
18 506.1 -5832.63
19 788.641 -1369.17
20 946.661 -1710.11
21 907.275 -2639.69
DEMAND_SECTION
1 0
2 1
3 1
4 1
5 1
6 1
7 1
8 1
9 1
10 1
11 1
12 1
13 1
14 1
15 1
16 1
17 1
18 1
19 1
20 1
21 1
DEPOT_SECTION
1
-1
EOF
